(set-logic QF_S)
(set-option :strings-exp true)
(set-option :produce-models true)
(declare-fun sigmaStar_0 () String)
(declare-fun sigmaStar_1 () String)
(declare-fun literal_11 () String)
(assert (= literal_11 "\x3c\x70\x20\x61\x6c\x69\x67\x6e\x3d\x22\x63\x65\x6e\x74\x65\x72\x22\x3e\x64\x65\x6c\x65\x74\x65\x20\x63\x61\x74\x65\x67\x6f\x72\x79\x3c\x66\x6f\x6e\x74\x20\x73\x69\x7a\x65\x3d\x22\x33\x22\x3e"))
(assert (str.in.re literal_11 (re.++ (re.* re.allchar) (re.++ (str.to.re "\x5c\x3c\x53\x43\x52\x49\x50\x54") (re.* re.allchar)))))
(check-sat)
(get-model)
